<?xml version="1.0"?>
<VTKFile type="UnstructuredGrid" version="0.1" byte_order="LittleEndian">
  <UnstructuredGrid>
    <Piece NumberOfCells="16" NumberOfPoints="50">
      <PointData Scalars="T" Vectors="u">
        <DataArray type="Float32" Name="T" NumberOfComponents="1" format="ascii">
          343.15 343.15 343.15 343.15 335.65 335.65 335.65 335.65 343.15 343.15 335.65 335.65
          343.15 343.15 335.65 335.65 343.15 343.15 335.65 335.65 328.15 328.15 328.15 328.15
          328.15 328.15 328.15 328.15 328.15 328.15 320.65 320.65 320.65 320.65 320.65 320.65
          320.65 320.65 320.65 320.65 313.15 313.15 313.15 313.15 313.15 313.15 313.15 313.15
          313.15 313.15
        </DataArray>
        <DataArray type="Float32" Name="pW" NumberOfComponents="1" format="ascii">
          2.08789e+07 2.08789e+07 2.11072e+07 2.11753e+07 1.82817e+07 1.82817e+07 1.87474e+07 1.92781e+07 2.11753e+07 2.13579e+07 1.92781e+07 1.92894e+07
          2.11072e+07 2.11753e+07 1.87474e+07 1.92781e+07 2.08789e+07 2.08789e+07 1.82817e+07 1.82817e+07 1.56845e+07 1.56845e+07 1.66671e+07 1.68157e+07
          1.68157e+07 3.13328e+07 1.66671e+07 1.68157e+07 1.56845e+07 1.56845e+07 1.30873e+07 1.30873e+07 1.35361e+07 1.40853e+07 1.40853e+07 1.43972e+07
          1.35361e+07 1.40853e+07 1.30873e+07 1.30873e+07 1.04901e+07 1.04901e+07 1.04901e+07 1.04901e+07 1.04901e+07 1.04901e+07 1.04901e+07 1.04901e+07
          1.04901e+07 1.04901e+07
        </DataArray>
        <DataArray type="Float32" Name="pN" NumberOfComponents="1" format="ascii">
          2.08964e+07 2.08964e+07 2.11248e+07 2.11929e+07 1.82993e+07 1.82993e+07 1.87649e+07 1.92957e+07 2.11929e+07 2.13754e+07 1.92957e+07 1.9307e+07
          2.11248e+07 2.11929e+07 1.87649e+07 1.92957e+07 2.08964e+07 2.08964e+07 1.82993e+07 1.82993e+07 1.57021e+07 1.57021e+07 1.66847e+07 1.68333e+07
          1.68333e+07 3.13531e+07 1.66847e+07 1.68333e+07 1.57021e+07 1.57021e+07 1.31049e+07 1.31049e+07 1.35537e+07 1.41029e+07 1.41029e+07 1.44147e+07
          1.35537e+07 1.41029e+07 1.31049e+07 1.31049e+07 1.05077e+07 1.05077e+07 1.05077e+07 1.05077e+07 1.05077e+07 1.05077e+07 1.05077e+07 1.05077e+07
          1.05077e+07 1.05077e+07
        </DataArray>
        <DataArray type="Float32" Name="pC" NumberOfComponents="1" format="ascii">
          17569.9 17569.9 17569.9 17569.9 17569.9 17569.9 17569.9 17569.9 17569.9 17569.9 17569.9 17569.7
          17569.9 17569.9 17569.9 17569.9 17569.9 17569.9 17569.9 17569.9 17569.9 17569.9 17569.9 17570
          17570 20280 17569.9 17570 17569.9 17569.9 17569.9 17569.9 17569.9 17569.9 17569.9 17570.4
          17569.9 17569.9 17569.9 17569.9 17569.9 17569.9 17569.9 17569.9 17569.9 17569.9 17569.9 17569.9
          17569.9 17569.9
        </DataArray>
        <DataArray type="Float32" Name="SW" NumberOfComponents="1" format="ascii">
          1 1 1 1 1 1 1 1 1 1 1 1
          1 1 1 1 1 1 1 1 1 1 1 0.999998
          0.999998 0.941972 1 0.999998 1 1 1 1 1 1 1 0.999989
          1 1 1 1 1 1 1 1 1 1 1 1
          1 1
        </DataArray>
        <DataArray type="Float32" Name="SN" NumberOfComponents="1" format="ascii">
          0 0 0 0 0 0 -1.94152e-15 -8.87281e-11 0 0 -8.87281e-11 -3.40119e-06
          0 0 -1.94152e-15 -8.87281e-11 0 0 0 0 0 0 4.90288e-11 2.00586e-06
          2.00586e-06 0.0580276 4.90288e-11 2.00586e-06 0 0 0 0 1.10803e-14 3.72522e-10 3.72522e-10 1.07298e-05
          1.10803e-14 3.72522e-10 0 0 0 0 0 0 0 0 0 0
          0 0
        </DataArray>
        <DataArray type="Float32" Name="rhoW" NumberOfComponents="1" format="ascii">
          1056.55 1056.55 1056.63 1056.65 1059.66 1059.66 1059.84 1060.03 1056.65 1056.72 1060.03 1060.04
          1056.63 1056.65 1059.84 1060.03 1056.55 1056.55 1059.66 1059.66 1062.49 1062.49 1062.86 1062.92
          1062.92 1068.35 1062.86 1062.92 1062.49 1062.49 1064.99 1064.99 1065.16 1065.38 1065.38 1065.5
          1065.16 1065.38 1064.99 1064.99 1067.12 1067.12 1067.12 1067.12 1067.12 1067.12 1067.12 1067.12
          1067.12 1067.12
        </DataArray>
        <DataArray type="Float32" Name="rhoN" NumberOfComponents="1" format="ascii">
          695.741 695.741 699.572 700.689 675.345 675.345 684.99 695.253 700.689 703.658 695.253 695.467
          699.572 700.689 684.99 695.253 695.741 695.741 675.345 675.345 673.462 673.462 697.076 700.28
          700.28 859.258 697.076 700.28 673.462 673.462 669.574 669.574 684.158 699.769 699.769 707.751
          684.158 699.769 669.574 669.574 660.265 660.265 660.265 660.265 660.265 660.265 660.265 660.265
          660.265 660.265
        </DataArray>
        <DataArray type="Float32" Name="u" NumberOfComponents="3" format="ascii">
          -0.00382115 0 0 3.06465e-13 0 0 -0.0067751 -0.0067751 0 4.60818e-13 -0.0103242 0
          -0.00527103 0 0.0189789 3.08491e-13 0 0.0164223 -0.0110335 -0.0110335 0.0145686 4.9884e-13 -0.0184832 0.00743526
          -0.0103242 6.13944e-14 0 4.66306e-13 8.38627e-14 0 -0.0184832 -2.55068e-14 0.00743526 5.4108e-13 5.38877e-14 -0.0405875
          -0.0067751 0.0067751 0 4.94402e-13 0.0103242 0 -0.0110335 0.0110335 0.0145686 6.49288e-13 0.0184832 0.00743526
          -0.00382115 0 0 3.6138e-13 0 0 -0.00527103 0 0.0189789 4.04932e-13 0 0.0164223
          -0.00768024 0 0.0462246 2.67381e-13 0 0.0472792 -0.0181328 -0.0181328 0.0474489 4.3148e-13 -0.0671215 0.0484509
          -0.0671215 -1.49626e-13 0.0484509 7.00567e-13 -1.19078e-13 0.0486735 -0.0181328 0.0181328 0.0474489 7.76523e-13 0.0671215 0.0484509
          -0.00768024 0 0.0462246 4.10569e-13 0 0.0472792 -0.00407681 0 0.070467 2.09553e-13 0 0.0767479
          -0.00901904 -0.00901904 0.0806141 2.71644e-13 -0.0167696 0.0927709 -0.0167696 6.82738e-14 0.0927709 3.41172e-13 -6.16196e-14 0.147466
          -0.00901904 0.00901904 0.0806141 1.52626e-13 0.0167696 0.0927709 -0.00407681 0 0.070467 1.91209e-13 0 0.0767479
          -0.0052205 0 0.0799183 3.02569e-13 0 0.0859793 -0.0079145 -0.0079145 0.0915437 3.36619e-13 -0.0116159 0.105516
          -0.0116159 2.80616e-14 0.105516 3.64456e-13 -3.84663e-14 0.120824 -0.0079145 0.0079145 0.0915437 2.68717e-13 0.0116159 0.105516
          -0.0052205 0 0.0799183 2.61407e-13 0 0.0859793
        </DataArray>
      </PointData>
      <CellData Scalars="principal stress 1" Vectors="effective stress changes X">
        <DataArray type="Float32" Name="effective stress changes X" NumberOfComponents="3" format="ascii">
          -197321 49288.1 38495.5 -369886 54993.9 168934 -369886 -54993.9 168934 -197321 -49288.1 38495.5
          -309496 181634 42854.3 -1.29671e+06 282192 274172 -1.29671e+06 -282192 274172 -309496 -181634 42854.3
          -292981 180335 -83028.4 -1.29302e+06 283696 -318854 -1.29302e+06 -283696 -318854 -292981 -180335 -83028.4
          -169936 47720.5 -96079.1 -393956 57259.9 -255977 -393956 -57259.9 -255977 -169936 -47720.5 -96079.1
        </DataArray>
        <DataArray type="Float32" Name="effective stress changes Y" NumberOfComponents="3" format="ascii">
          49288.1 170264 64537.3 54993.9 -369886 168934 -54993.9 -369886 -168934 -49288.1 170264 -64537.3
          181634 474947 166847 282192 -1.29671e+06 274172 -282192 -1.29671e+06 -274172 -181634 474947 -166847
          180335 456778 -220079 283696 -1.29302e+06 -318854 -283696 -1.29302e+06 318854 -180335 456778 220079
          47720.5 187814 -158976 57259.9 -393956 -255977 -57259.9 -393956 255977 -47720.5 187814 158976
        </DataArray>
        <DataArray type="Float32" Name="effective stress changes Z" NumberOfComponents="3" format="ascii">
          38495.5 64537.3 -349842 168934 168934 -81064.2 168934 -168934 -81064.2 38495.5 -64537.3 -349842
          42854.3 166847 -758901 274172 274172 -1.74372e+06 274172 -274172 -1.74372e+06 42854.3 -166847 -758901
          -83028.4 -220079 -754419 -318854 -318854 -1.84079e+06 -318854 318854 -1.84079e+06 -83028.4 220079 -754419
          -96079.1 -158976 -250568 -255977 -255977 -216252 -255977 255977 -216252 -96079.1 158976 -250568
        </DataArray>
        <DataArray type="Float32" Name="principal stress 1" NumberOfComponents="1" format="ascii">
          4.33092e+07 4.34053e+07 4.34053e+07 4.33092e+07 3.80938e+07 3.912e+07 3.912e+07 3.80938e+07 3.23549e+07 3.34725e+07 3.34725e+07 3.23549e+07
          2.6103e+07 2.62942e+07 2.62942e+07 2.6103e+07
        </DataArray>
        <DataArray type="Float32" Name="principal stress 2" NumberOfComponents="1" format="ascii">
          4.29416e+07 4.31165e+07 4.31165e+07 4.29416e+07 3.73093e+07 3.8388e+07 3.8388e+07 3.73093e+07 3.16052e+07 3.27075e+07 3.27075e+07 3.16052e+07
          2.57452e+07 2.57524e+07 2.57524e+07 2.57452e+07
        </DataArray>
        <DataArray type="Float32" Name="principal stress 3" NumberOfComponents="1" format="ascii">
          4.27891e+07 4.31165e+07 4.31165e+07 4.27891e+07 3.68599e+07 3.80556e+07 3.80556e+07 3.68599e+07 3.11437e+07 3.22458e+07 3.22458e+07 3.11437e+07
          2.56646e+07 2.55602e+07 2.55602e+07 2.56646e+07
        </DataArray>
        <DataArray type="Float32" Name="total stresses X" NumberOfComponents="3" format="ascii">
          4.29416e+07 49288.1 38495.5 4.31165e+07 54993.9 168934 4.31165e+07 -54993.9 168934 4.29416e+07 -49288.1 38495.5
          3.73093e+07 181634 42854.3 3.86702e+07 282192 274172 3.86702e+07 -282192 274172 3.73093e+07 -181634 42854.3
          3.16052e+07 180335 -83028.4 3.29912e+07 283696 -318854 3.29912e+07 -283696 -318854 3.16052e+07 -180335 -83028.4
          2.57452e+07 47720.5 -96079.1 2.58097e+07 57259.9 -255977 2.58097e+07 -57259.9 -255977 2.57452e+07 -47720.5 -96079.1
        </DataArray>
        <DataArray type="Float32" Name="total stresses Y" NumberOfComponents="3" format="ascii">
          49288.1 4.33092e+07 64537.3 54993.9 4.31165e+07 168934 -54993.9 4.31165e+07 -168934 -49288.1 4.33092e+07 -64537.3
          181634 3.80938e+07 166847 282192 3.86702e+07 274172 -282192 3.86702e+07 -274172 -181634 3.80938e+07 -166847
          180335 3.23549e+07 -220079 283696 3.29912e+07 -318854 -283696 3.29912e+07 318854 -180335 3.23549e+07 220079
          47720.5 2.6103e+07 -158976 57259.9 2.58097e+07 -255977 -57259.9 2.58097e+07 255977 -47720.5 2.6103e+07 158976
        </DataArray>
        <DataArray type="Float32" Name="total stresses Z" NumberOfComponents="3" format="ascii">
          38495.5 64537.3 4.27891e+07 168934 168934 4.34053e+07 168934 -168934 4.34053e+07 38495.5 -64537.3 4.27891e+07
          42854.3 166847 3.68599e+07 274172 274172 3.82232e+07 274172 -274172 3.82232e+07 42854.3 -166847 3.68599e+07
          -83028.4 -220079 3.11437e+07 -318854 -318854 3.24434e+07 -318854 318854 3.24434e+07 -83028.4 220079 3.11437e+07
          -96079.1 -158976 2.56646e+07 -255977 -255977 2.59874e+07 -255977 255977 2.59874e+07 -96079.1 158976 2.56646e+07
        </DataArray>
        <DataArray type="Float32" Name="initial stresses X" NumberOfComponents="3" format="ascii">
          4.28905e+07 0 0 4.28905e+07 0 0 4.28905e+07 0 0 4.28905e+07 0 0
          3.71718e+07 0 0 3.71718e+07 0 0 3.71718e+07 0 0 3.71718e+07 0 0
          3.14531e+07 0 0 3.14531e+07 0 0 3.14531e+07 0 0 3.14531e+07 0 0
          2.57343e+07 0 0 2.57343e+07 0 0 2.57343e+07 0 0 2.57343e+07 0 0
        </DataArray>
        <DataArray type="Float32" Name="initial stresses Y" NumberOfComponents="3" format="ascii">
          0 4.28905e+07 0 0 4.28905e+07 0 0 4.28905e+07 0 0 4.28905e+07 0
          0 3.71718e+07 0 0 3.71718e+07 0 0 3.71718e+07 0 0 3.71718e+07 0
          0 3.14531e+07 0 0 3.14531e+07 0 0 3.14531e+07 0 0 3.14531e+07 0
          0 2.57343e+07 0 0 2.57343e+07 0 0 2.57343e+07 0 0 2.57343e+07 0
        </DataArray>
        <DataArray type="Float32" Name="initial stresses Z" NumberOfComponents="3" format="ascii">
          0 0 4.28905e+07 0 0 4.28905e+07 0 0 4.28905e+07 0 0 4.28905e+07
          0 0 3.71718e+07 0 0 3.71718e+07 0 0 3.71718e+07 0 0 3.71718e+07
          0 0 3.14531e+07 0 0 3.14531e+07 0 0 3.14531e+07 0 0 3.14531e+07
          0 0 2.57343e+07 0 0 2.57343e+07 0 0 2.57343e+07 0 0 2.57343e+07
        </DataArray>
        <DataArray type="Float32" Name="delta pEff" NumberOfComponents="1" format="ascii">
          248354 595804 595804 248354 446997 2.79511e+06 2.79511e+06 446997 445093 2.83117e+06 2.83117e+06 445093
          180855 469339 469339 180855
        </DataArray>
        <DataArray type="Float32" Name="effectivePressure" NumberOfComponents="1" format="ascii">
          1.98286e+07 2.01761e+07 2.01761e+07 1.98286e+07 1.74301e+07 1.97782e+07 1.97782e+07 1.74301e+07 1.4831e+07 1.72171e+07 1.72171e+07 1.4831e+07
          1.19695e+07 1.2258e+07 1.2258e+07 1.19695e+07
        </DataArray>
        <DataArray type="Float32" Name="Pcr_tensile" NumberOfComponents="1" format="ascii">
          -2.29604e+07 -2.29404e+07 -2.29404e+07 -2.29604e+07 -1.94298e+07 -1.82774e+07 -1.82774e+07 -1.94298e+07 -1.63128e+07 -1.50288e+07 -1.50288e+07 -1.63128e+07
          -1.36951e+07 -1.33022e+07 -1.33022e+07 -1.36951e+07
        </DataArray>
        <DataArray type="Float32" Name="Pcr_shear" NumberOfComponents="1" format="ascii">
          -2.27004e+07 -2.2796e+07 -2.2796e+07 -2.27004e+07 -1.88129e+07 -1.77451e+07 -1.77451e+07 -1.88129e+07 -1.57072e+07 -1.44155e+07 -1.44155e+07 -1.57072e+07
          -1.34759e+07 -1.29352e+07 -1.29352e+07 -1.34759e+07
        </DataArray>
        <DataArray type="Float32" Name="effective Kxx" NumberOfComponents="1" format="ascii">
          1.00335e-14 1.00732e-14 1.00732e-14 1.00335e-14 1.00529e-14 1.03929e-14 1.03929e-14 1.00529e-14 1.00526e-14 1.04012e-14 1.04012e-14 1.00526e-14
          1.00207e-14 1.00896e-14 1.00896e-14 1.00207e-14
        </DataArray>
        <DataArray type="Float32" Name="effective Porosity" NumberOfComponents="1" format="ascii">
          0.20003 0.200066 0.200066 0.20003 0.200047 0.200347 0.200347 0.200047 0.200047 0.200354 0.200354 0.200047
          0.200019 0.20008 0.20008 0.200019
        </DataArray>
      </CellData>
      <Points>
        <DataArray type="Float32" Name="Coordinates" NumberOfComponents="3" format="ascii">
          250 0 0 500 0 0 250 250 0 500 250 0
          250 0 250 500 0 250 250 250 250 500 250 250
          250 500 0 500 500 0 250 500 250 500 500 250
          250 750 0 500 750 0 250 750 250 500 750 250
          250 1000 0 500 1000 0 250 1000 250 500 1000 250
          250 0 500 500 0 500 250 250 500 500 250 500
          250 500 500 500 500 500 250 750 500 500 750 500
          250 1000 500 500 1000 500 250 0 750 500 0 750
          250 250 750 500 250 750 250 500 750 500 500 750
          250 750 750 500 750 750 250 1000 750 500 1000 750
          250 0 1000 500 0 1000 250 250 1000 500 250 1000
          250 500 1000 500 500 1000 250 750 1000 500 750 1000
          250 1000 1000 500 1000 1000
        </DataArray>
      </Points>
      <Cells>
        <DataArray type="Int32" Name="connectivity" NumberOfComponents="1" format="ascii">
          0 1 3 2 4 5 7 6 2 3 9 8
          6 7 11 10 8 9 13 12 10 11 15 14
          12 13 17 16 14 15 19 18 4 5 7 6
          20 21 23 22 6 7 11 10 22 23 25 24
          10 11 15 14 24 25 27 26 14 15 19 18
          26 27 29 28 20 21 23 22 30 31 33 32
          22 23 25 24 32 33 35 34 24 25 27 26
          34 35 37 36 26 27 29 28 36 37 39 38
          30 31 33 32 40 41 43 42 32 33 35 34
          42 43 45 44 34 35 37 36 44 45 47 46
          36 37 39 38 46 47 49 48
        </DataArray>
        <DataArray type="Int32" Name="offsets" NumberOfComponents="1" format="ascii">
          8 16 24 32 40 48 56 64 72 80 88 96
          104 112 120 128
        </DataArray>
        <DataArray type="UInt8" Name="types" NumberOfComponents="1" format="ascii">
          12 12 12 12 12 12 12 12 12 12 12 12
          12 12 12 12
        </DataArray>
      </Cells>
    </Piece>
  </UnstructuredGrid>
</VTKFile>
