<?xml version="1.0"?>
<VTKFile type="UnstructuredGrid" version="0.1" byte_order="LittleEndian">
  <UnstructuredGrid>
    <Piece NumberOfCells="100" NumberOfPoints="121">
      <PointData Scalars="ux">
        <DataArray type="Float32" Name="ux" NumberOfComponents="1" format="ascii">
          0 0 0 0.0496531 0 0.0935884 0 0.128384 0 0.15085 0 0.15863
          0 0.15085 0 0.128384 0 0.0935884 0 0.0496531 0 0 0 0.0847178
          0.152385 0.202464 0.23334 0.243784 0.23334 0.202464 0.152385 0.0847178 0 0 0.0868343 0.15157
          0.195857 0.221522 0.229908 0.221522 0.195857 0.15157 0.0868343 0 0 0.0550363 0.091311 0.11225
          0.122365 0.12528 0.122365 0.11225 0.091311 0.0550363 0 0 0.00157616 -0.00498335 -0.0157281 -0.0251904
          -0.0289107 -0.0251904 -0.0157281 -0.00498335 0.00157616 0 0 -0.053058 -0.100385 -0.138962 -0.16449 -0.173445
          -0.16449 -0.138962 -0.100385 -0.053058 0 0 -0.088061 -0.158611 -0.210639 -0.242656 -0.253481 -0.242656
          -0.210639 -0.158611 -0.088061 0 0 -0.0901622 -0.157814 -0.204091 -0.230916 -0.239687 -0.230916 -0.204091
          -0.157814 -0.0901622 0 0 -0.0583809 -0.0981587 -0.122955 -0.136164 -0.140263 -0.136164 -0.122955 -0.0981587
          -0.0583809 0 0 0 0 0 0 0 0 0 0 0
          0
        </DataArray>
        <DataArray type="Float32" Name="uy" NumberOfComponents="1" format="ascii">
          0 0 0 0.355768 0 0.575906 0 0.575799 0 0.355822 0 7.96799e-17
          0 -0.355822 0 -0.575799 0 -0.575906 0 -0.355768 0 0 0 0.576323
          0.930796 0.930114 0.574651 1.69095e-16 -0.574651 -0.930114 -0.930796 -0.576323 0 0 0.57667 0.930754
          0.929712 0.574315 1.90047e-16 -0.574315 -0.929712 -0.930754 -0.57667 0 0 0.356898 0.575773 0.57496
          0.355117 1.45635e-16 -0.355117 -0.57496 -0.575773 -0.356898 0 0 0.000995755 0.00126406 0.00107168 0.000601734
          9.76171e-17 -0.000601734 -0.00107168 -0.00126406 -0.000995755 0 0 -0.355192 -0.573584 -0.573091 -0.354063 3.53984e-17
          0.354063 0.573091 0.573584 0.355192 0 0 -0.575691 -0.929427 -0.928537 -0.57364 2.26631e-17 0.57364
          0.928537 0.929427 0.575691 0 0 -0.576171 -0.930442 -0.929727 -0.574409 1.18968e-17 0.574409 0.929727
          0.930442 0.576171 0 0 -0.356095 -0.576115 -0.575901 -0.355859 1.01952e-17 0.355859 0.575901 0.576115
          0.356095 0 0 0 0 0 0 0 0 0 0 0
          0
        </DataArray>
        <DataArray type="Float32" Name="ux_exact" NumberOfComponents="1" format="ascii">
          0 0 0 0.0529007 0 0.0940456 0 0.123435 0 0.141068 0 0.146946
          0 0.141068 0 0.123435 0 0.0940456 0 0.0529007 0 0 0 0.0855951
          0.152169 0.199722 0.228254 0.237764 0.228254 0.199722 0.152169 0.0855951 0 0 0.0855951 0.152169
          0.199722 0.228254 0.237764 0.228254 0.199722 0.152169 0.0855951 0 0 0.0529007 0.0940456 0.123435
          0.141068 0.146946 0.141068 0.123435 0.0940456 0.0529007 0 0 1.10218e-17 1.95943e-17 2.57176e-17 2.93915e-17
          3.06162e-17 2.93915e-17 2.57176e-17 1.95943e-17 1.10218e-17 0 0 -0.0529007 -0.0940456 -0.123435 -0.141068 -0.146946
          -0.141068 -0.123435 -0.0940456 -0.0529007 0 0 -0.0855951 -0.152169 -0.199722 -0.228254 -0.237764 -0.228254
          -0.199722 -0.152169 -0.0855951 0 0 -0.0855951 -0.152169 -0.199722 -0.228254 -0.237764 -0.228254 -0.199722
          -0.152169 -0.0855951 0 0 -0.0529007 -0.0940456 -0.123435 -0.141068 -0.146946 -0.141068 -0.123435 -0.0940456
          -0.0529007 0 0 -2.20436e-17 -3.91887e-17 -5.14352e-17 -5.8783e-17 -6.12323e-17 -5.8783e-17 -5.14352e-17 -3.91887e-17 -2.20436e-17
          0
        </DataArray>
        <DataArray type="Float32" Name="uy_exact" NumberOfComponents="1" format="ascii">
          0 0 0 0.345491 0 0.559017 0 0.559017 0 0.345491 0 7.19829e-17
          0 -0.345491 0 -0.559017 0 -0.559017 0 -0.345491 0 -1.43966e-16 0 0.559017
          0.904508 0.904508 0.559017 1.16471e-16 -0.559017 -0.904508 -0.904508 -0.559017 -2.32942e-16 0 0.559017 0.904508
          0.904508 0.559017 1.16471e-16 -0.559017 -0.904508 -0.904508 -0.559017 -2.32942e-16 0 0.345491 0.559017 0.559017
          0.345491 7.19829e-17 -0.345491 -0.559017 -0.559017 -0.345491 -1.43966e-16 0 7.19829e-17 1.16471e-16 1.16471e-16 7.19829e-17
          1.49976e-32 -7.19829e-17 -1.16471e-16 -1.16471e-16 -7.19829e-17 -2.99952e-32 0 -0.345491 -0.559017 -0.559017 -0.345491 -7.19829e-17
          0.345491 0.559017 0.559017 0.345491 1.43966e-16 0 -0.559017 -0.904508 -0.904508 -0.559017 -1.16471e-16 0.559017
          0.904508 0.904508 0.559017 2.32942e-16 0 -0.559017 -0.904508 -0.904508 -0.559017 -1.16471e-16 0.559017 0.904508
          0.904508 0.559017 2.32942e-16 0 -0.345491 -0.559017 -0.559017 -0.345491 -7.19829e-17 0.345491 0.559017 0.559017
          0.345491 1.43966e-16 0 -1.43966e-16 -2.32942e-16 -2.32942e-16 -1.43966e-16 -2.99952e-32 1.43966e-16 2.32942e-16 2.32942e-16 1.43966e-16
          5.99904e-32
        </DataArray>
      </PointData>
      <CellData Vectors="stress X">
        <DataArray type="Float32" Name="stress X" NumberOfComponents="3" format="ascii">
          7.57092e+09 6.08132e+09 0 1.59522e+10 5.45068e+09 0 1.88414e+10 3.32798e+09 0 1.49853e+10 8.88857e+08 0
          5.68744e+09 -6.95139e+08 0 -5.68744e+09 -6.95139e+08 0 -1.49853e+10 8.88857e+08 0 -1.88414e+10 3.32798e+09 0
          -1.59522e+10 5.45068e+09 0 -7.57092e+09 6.08132e+09 0 9.35501e+09 1.45073e+10 0 1.36538e+10 1.00271e+10 0
          1.44574e+10 1.98131e+09 0 1.09976e+10 -6.28303e+09 0 4.10253e+09 -1.14424e+10 0 -4.10253e+09 -1.14424e+10 0
          -1.09976e+10 -6.28303e+09 0 -1.44574e+10 1.98131e+09 0 -1.36538e+10 1.00271e+10 0 -9.35501e+09 1.45073e+10 0
          7.72505e+09 1.73266e+10 0 5.96269e+09 1.06479e+10 0 4.23983e+09 -1.37199e+08 0 2.53332e+09 -1.09392e+10 0
          8.42329e+08 -1.76199e+10 0 -8.42329e+08 -1.76199e+10 0 -2.53332e+09 -1.09392e+10 0 -4.23983e+09 -1.37199e+08 0
          -5.96269e+09 1.06479e+10 0 -7.72505e+09 1.73266e+10 0 3.0876e+09 1.35266e+10 0 -4.07583e+09 7.21353e+09 0
          -7.7108e+09 -2.18582e+09 0 -6.99913e+09 -1.13701e+10 0 -2.77941e+09 -1.69983e+10 0 2.77941e+09 -1.69983e+10 0
          6.99913e+09 -1.13701e+10 0 7.7108e+09 -2.18582e+09 0 4.07583e+09 7.21353e+09 0 -3.0876e+09 1.35266e+10 0
          -2.79098e+09 4.56651e+09 0 -1.2619e+10 1.04083e+09 0 -1.67672e+10 -3.37916e+09 0 -1.38967e+10 -7.43768e+09 0
          -5.35396e+09 -9.86197e+09 0 5.35396e+09 -9.86197e+09 0 1.38967e+10 -7.43768e+09 0 1.67672e+10 -3.37916e+09 0
          1.2619e+10 1.04083e+09 0 2.79098e+09 4.56651e+09 0 -7.6595e+09 -6.13246e+09 0 -1.63904e+10 -5.52239e+09 0
          -1.94547e+10 -3.27501e+09 0 -1.55069e+10 -6.59637e+08 0 -5.89038e+09 1.04441e+09 0 5.89038e+09 1.04441e+09 0
          1.55069e+10 -6.59637e+08 0 1.94547e+10 -3.27501e+09 0 1.63904e+10 -5.52239e+09 0 7.6595e+09 -6.13246e+09 0
          -9.65784e+09 -1.44883e+10 0 -1.39496e+10 -9.98035e+09 0 -1.47466e+10 -1.92778e+09 0 -1.12148e+10 6.36121e+09 0
          -4.18375e+09 1.15425e+10 0 4.18375e+09 1.15425e+10 0 1.12148e+10 6.36121e+09 0 1.47466e+10 -1.92778e+09 0
          1.39496e+10 -9.98035e+09 0 9.65784e+09 -1.44883e+10 0 -8.02724e+09 -1.73095e+10 0 -6.24147e+09 -1.06397e+10 0
          -4.45683e+09 1.34253e+08 0 -2.67723e+09 1.09275e+10 0 -8.93354e+08 1.76038e+10 0 8.93354e+08 1.76038e+10 0
          2.67723e+09 1.09275e+10 0 4.45683e+09 1.34253e+08 0 6.24147e+09 -1.06397e+10 0 8.02724e+09 -1.73095e+10 0
          -3.38329e+09 -1.35073e+10 0 3.78171e+09 -7.24282e+09 0 7.42398e+09 2.12582e+09 0 6.78413e+09 1.12687e+10 0
          2.6991e+09 1.68667e+10 0 -2.6991e+09 1.68667e+10 0 -6.78413e+09 1.12687e+10 0 -7.42398e+09 2.12582e+09 0
          -3.78171e+09 -7.24282e+09 0 3.38329e+09 -1.35073e+10 0 2.71428e+09 -4.4657e+09 0 1.21931e+10 -9.52218e+08 0
          1.61644e+10 3.31992e+09 0 1.3382e+10 7.18741e+09 0 5.15344e+09 9.48428e+09 0 -5.15344e+09 9.48428e+09 0
          -1.3382e+10 7.18741e+09 0 -1.61644e+10 3.31992e+09 0 -1.21931e+10 -9.52218e+08 0 -2.71428e+09 -4.4657e+09 0
        </DataArray>
        <DataArray type="Float32" Name="stress Y" NumberOfComponents="3" format="ascii">
          6.08132e+09 1.67544e+10 0 5.45068e+09 4.25844e+10 0 3.32798e+09 5.23486e+10 0 8.88857e+08 4.22599e+10 0
          -6.95139e+08 1.61287e+10 0 -6.95139e+08 -1.61287e+10 0 8.88857e+08 -4.22599e+10 0 3.32798e+09 -5.23486e+10 0
          5.45068e+09 -4.25844e+10 0 6.08132e+09 -1.67544e+10 0 1.45073e+10 1.19405e+10 0 1.00271e+10 2.7569e+10 0
          1.98131e+09 3.31874e+10 0 -6.28303e+09 2.65916e+10 0 -1.14424e+10 1.01207e+10 0 -1.14424e+10 -1.01207e+10 0
          -6.28303e+09 -2.65916e+10 0 1.98131e+09 -3.31874e+10 0 1.00271e+10 -2.7569e+10 0 1.45073e+10 -1.19405e+10 0
          1.73266e+10 2.5889e+09 0 1.06479e+10 1.99978e+09 0 -1.37199e+08 1.39552e+09 0 -1.09392e+10 8.14936e+08 0
          -1.76199e+10 2.67353e+08 0 -1.76199e+10 -2.67353e+08 0 -1.09392e+10 -8.14936e+08 0 -1.37199e+08 -1.39552e+09 0
          1.06479e+10 -1.99978e+09 0 1.73266e+10 -2.5889e+09 0 1.35266e+10 -7.76166e+09 0 7.21353e+09 -2.43487e+10 0
          -2.18582e+09 -3.09596e+10 0 -1.13701e+10 -2.5291e+10 0 -1.69983e+10 -9.69439e+09 0 -1.69983e+10 9.69439e+09 0
          -1.13701e+10 2.5291e+10 0 -2.18582e+09 3.09596e+10 0 7.21353e+09 2.43487e+10 0 1.35266e+10 7.76166e+09 0
          4.56651e+09 -1.51664e+10 0 1.04083e+09 -4.14228e+10 0 -3.37916e+09 -5.1525e+10 0 -7.43768e+09 -4.17684e+10 0
          -9.86197e+09 -1.59653e+10 0 -9.86197e+09 1.59653e+10 0 -7.43768e+09 4.17684e+10 0 -3.37916e+09 5.1525e+10 0
          1.04083e+09 4.14228e+10 0 4.56651e+09 1.51664e+10 0 -6.13246e+09 -1.68007e+10 0 -5.52239e+09 -4.27049e+10 0
          -3.27501e+09 -5.24453e+10 0 -6.59637e+08 -4.23221e+10 0 1.04441e+09 -1.61501e+10 0 1.04441e+09 1.61501e+10 0
          -6.59637e+08 4.23221e+10 0 -3.27501e+09 5.24453e+10 0 -5.52239e+09 4.27049e+10 0 -6.13246e+09 1.68007e+10 0
          -1.44883e+10 -1.20392e+10 0 -9.98035e+09 -2.77035e+10 0 -1.92778e+09 -3.33671e+10 0 6.36121e+09 -2.67392e+10 0
          1.15425e+10 -1.01777e+10 0 1.15425e+10 1.01777e+10 0 6.36121e+09 2.67392e+10 0 -1.92778e+09 3.33671e+10 0
          -9.98035e+09 2.77035e+10 0 -1.44883e+10 1.20392e+10 0 -1.73095e+10 -2.69493e+09 0 -1.06397e+10 -2.14025e+09 0
          1.34253e+08 -1.57376e+09 0 1.09275e+10 -9.7076e+08 0 1.76038e+10 -3.28552e+08 0 1.76038e+10 3.28552e+08 0
          1.09275e+10 9.7076e+08 0 1.34253e+08 1.57376e+09 0 -1.06397e+10 2.14025e+09 0 -1.73095e+10 2.69493e+09 0
          -1.35073e+10 7.67529e+09 0 -7.24282e+09 2.42367e+10 0 2.12582e+09 3.08007e+10 0 1.12687e+10 2.51564e+10 0
          1.68667e+10 9.64171e+09 0 1.68667e+10 -9.64171e+09 0 1.12687e+10 -2.51564e+10 0 2.12582e+09 -3.08007e+10 0
          -7.24282e+09 -2.42367e+10 0 -1.35073e+10 -7.67529e+09 0 -4.4657e+09 1.51485e+10 0 -9.52218e+08 4.13528e+10 0
          3.31992e+09 5.14688e+10 0 7.18741e+09 4.17311e+10 0 9.48428e+09 1.59522e+10 0 9.48428e+09 -1.59522e+10 0
          7.18741e+09 -4.17311e+10 0 3.31992e+09 -5.14688e+10 0 -9.52218e+08 -4.13528e+10 0 -4.4657e+09 -1.51485e+10 0
        </DataArray>
      </CellData>
      <Points>
        <DataArray type="Float32" Name="Coordinates" NumberOfComponents="3" format="ascii">
          0 0 0 0.1 0 0 0 0.1 0 0.1 0.1 0
          0.2 0 0 0.2 0.1 0 0.3 0 0 0.3 0.1 0
          0.4 0 0 0.4 0.1 0 0.5 0 0 0.5 0.1 0
          0.6 0 0 0.6 0.1 0 0.7 0 0 0.7 0.1 0
          0.8 0 0 0.8 0.1 0 0.9 0 0 0.9 0.1 0
          1 0 0 1 0.1 0 0 0.2 0 0.1 0.2 0
          0.2 0.2 0 0.3 0.2 0 0.4 0.2 0 0.5 0.2 0
          0.6 0.2 0 0.7 0.2 0 0.8 0.2 0 0.9 0.2 0
          1 0.2 0 0 0.3 0 0.1 0.3 0 0.2 0.3 0
          0.3 0.3 0 0.4 0.3 0 0.5 0.3 0 0.6 0.3 0
          0.7 0.3 0 0.8 0.3 0 0.9 0.3 0 1 0.3 0
          0 0.4 0 0.1 0.4 0 0.2 0.4 0 0.3 0.4 0
          0.4 0.4 0 0.5 0.4 0 0.6 0.4 0 0.7 0.4 0
          0.8 0.4 0 0.9 0.4 0 1 0.4 0 0 0.5 0
          0.1 0.5 0 0.2 0.5 0 0.3 0.5 0 0.4 0.5 0
          0.5 0.5 0 0.6 0.5 0 0.7 0.5 0 0.8 0.5 0
          0.9 0.5 0 1 0.5 0 0 0.6 0 0.1 0.6 0
          0.2 0.6 0 0.3 0.6 0 0.4 0.6 0 0.5 0.6 0
          0.6 0.6 0 0.7 0.6 0 0.8 0.6 0 0.9 0.6 0
          1 0.6 0 0 0.7 0 0.1 0.7 0 0.2 0.7 0
          0.3 0.7 0 0.4 0.7 0 0.5 0.7 0 0.6 0.7 0
          0.7 0.7 0 0.8 0.7 0 0.9 0.7 0 1 0.7 0
          0 0.8 0 0.1 0.8 0 0.2 0.8 0 0.3 0.8 0
          0.4 0.8 0 0.5 0.8 0 0.6 0.8 0 0.7 0.8 0
          0.8 0.8 0 0.9 0.8 0 1 0.8 0 0 0.9 0
          0.1 0.9 0 0.2 0.9 0 0.3 0.9 0 0.4 0.9 0
          0.5 0.9 0 0.6 0.9 0 0.7 0.9 0 0.8 0.9 0
          0.9 0.9 0 1 0.9 0 0 1 0 0.1 1 0
          0.2 1 0 0.3 1 0 0.4 1 0 0.5 1 0
          0.6 1 0 0.7 1 0 0.8 1 0 0.9 1 0
          1 1 0
        </DataArray>
      </Points>
      <Cells>
        <DataArray type="Int32" Name="connectivity" NumberOfComponents="1" format="ascii">
          0 1 3 2 1 4 5 3 4 6 7 5
          6 8 9 7 8 10 11 9 10 12 13 11
          12 14 15 13 14 16 17 15 16 18 19 17
          18 20 21 19 2 3 23 22 3 5 24 23
          5 7 25 24 7 9 26 25 9 11 27 26
          11 13 28 27 13 15 29 28 15 17 30 29
          17 19 31 30 19 21 32 31 22 23 34 33
          23 24 35 34 24 25 36 35 25 26 37 36
          26 27 38 37 27 28 39 38 28 29 40 39
          29 30 41 40 30 31 42 41 31 32 43 42
          33 34 45 44 34 35 46 45 35 36 47 46
          36 37 48 47 37 38 49 48 38 39 50 49
          39 40 51 50 40 41 52 51 41 42 53 52
          42 43 54 53 44 45 56 55 45 46 57 56
          46 47 58 57 47 48 59 58 48 49 60 59
          49 50 61 60 50 51 62 61 51 52 63 62
          52 53 64 63 53 54 65 64 55 56 67 66
          56 57 68 67 57 58 69 68 58 59 70 69
          59 60 71 70 60 61 72 71 61 62 73 72
          62 63 74 73 63 64 75 74 64 65 76 75
          66 67 78 77 67 68 79 78 68 69 80 79
          69 70 81 80 70 71 82 81 71 72 83 82
          72 73 84 83 73 74 85 84 74 75 86 85
          75 76 87 86 77 78 89 88 78 79 90 89
          79 80 91 90 80 81 92 91 81 82 93 92
          82 83 94 93 83 84 95 94 84 85 96 95
          85 86 97 96 86 87 98 97 88 89 100 99
          89 90 101 100 90 91 102 101 91 92 103 102
          92 93 104 103 93 94 105 104 94 95 106 105
          95 96 107 106 96 97 108 107 97 98 109 108
          99 100 111 110 100 101 112 111 101 102 113 112
          102 103 114 113 103 104 115 114 104 105 116 115
          105 106 117 116 106 107 118 117 107 108 119 118
          108 109 120 119
        </DataArray>
        <DataArray type="Int32" Name="offsets" NumberOfComponents="1" format="ascii">
          4 8 12 16 20 24 28 32 36 40 44 48
          52 56 60 64 68 72 76 80 84 88 92 96
          100 104 108 112 116 120 124 128 132 136 140 144
          148 152 156 160 164 168 172 176 180 184 188 192
          196 200 204 208 212 216 220 224 228 232 236 240
          244 248 252 256 260 264 268 272 276 280 284 288
          292 296 300 304 308 312 316 320 324 328 332 336
          340 344 348 352 356 360 364 368 372 376 380 384
          388 392 396 400
        </DataArray>
        <DataArray type="UInt8" Name="types" NumberOfComponents="1" format="ascii">
          9 9 9 9 9 9 9 9 9 9 9 9
          9 9 9 9 9 9 9 9 9 9 9 9
          9 9 9 9 9 9 9 9 9 9 9 9
          9 9 9 9 9 9 9 9 9 9 9 9
          9 9 9 9 9 9 9 9 9 9 9 9
          9 9 9 9 9 9 9 9 9 9 9 9
          9 9 9 9 9 9 9 9 9 9 9 9
          9 9 9 9 9 9 9 9 9 9 9 9
          9 9 9 9
        </DataArray>
      </Cells>
    </Piece>
  </UnstructuredGrid>
</VTKFile>
